presolving:
(round 1, fast)       153 del vars, 0 del conss, 0 add conss, 0 chg bounds, 0 chg sides, 0 chg coeffs, 0 upgd conss, 0 impls, 304 clqs
(round 2, exhaustive) 153 del vars, 0 del conss, 0 add conss, 0 chg bounds, 0 chg sides, 0 chg coeffs, 304 upgd conss, 0 impls, 304 clqs
   (1.0s) probing: 51/22952 (0.2%) - 0 fixings, 0 aggregations, 0 implications, 0 bound changes
   (1.0s) probing aborted: 50/50 successive totally useless probings
   Deactivated symmetry handling methods, since SCIP was built without symmetry detector (SYM=none).
presolving (3 rounds: 3 fast, 2 medium, 2 exhaustive):
 153 deleted vars, 0 deleted constraints, 0 added constraints, 0 tightened bounds, 0 added holes, 0 changed sides, 0 changed coefficients
 0 implications, 304 cliques
presolved problem has 23103 variables (22952 bin, 0 int, 0 impl, 151 cont) and 22954 constraints
    304 constraints of type <setppc>
  22650 constraints of type <linear>
Presolving Time: 1.00

 time | node  | left  |LP iter|LP it/n|mem/heur|mdpt |vars |cons |rows |cuts |sepa|confs|strbr|  dualbound   | primalbound  |  gap   | compl. 
p 3.0s|     1 |     0 |   151 |     - | vbounds|   0 |  23k|  22k|  22k|   0 |  0 |   5 |   0 | 0.000000e+00 | 1.637798e+05 |    Inf | unknown
  3.0s|     1 |     0 |   527 |     - |   225M |   0 |  23k|  22k|  22k|   0 |  0 |   5 |   0 | 4.305544e+04 | 1.637798e+05 | 280.39%| unknown
  3.0s|     1 |     0 |   669 |     - |   231M |   0 |  23k|  22k|  23k| 127 |  1 |   5 |   0 | 4.374152e+04 | 1.637798e+05 | 274.43%| unknown
  4.0s|     1 |     0 |   724 |     - |   233M |   0 |  23k|  22k|  23k| 186 |  2 |   5 |   0 | 4.451533e+04 | 1.637798e+05 | 267.92%| unknown
  4.0s|     1 |     0 |   753 |     - |   236M |   0 |  23k|  22k|  23k| 204 |  3 |   5 |   0 | 4.451533e+04 | 1.637798e+05 | 267.92%| unknown
  5.0s|     1 |     0 |   763 |     - |   240M |   0 |  23k|  22k|  23k| 209 |  4 |   5 |   0 | 4.451533e+04 | 1.637798e+05 | 267.92%| unknown
  6.0s|     1 |     0 |   858 |     - |   243M |   0 |  23k|  22k|  23k| 264 |  5 |   5 |   0 | 4.451533e+04 | 1.637798e+05 | 267.92%| unknown
  6.0s|     1 |     0 |   946 |     - |   248M |   0 |  23k|  22k|  23k| 316 |  6 |   5 |   0 | 4.451533e+04 | 1.637798e+05 | 267.92%| unknown
  7.0s|     1 |     0 |  1026 |     - |   253M |   0 |  23k|  22k|  23k| 351 |  7 |   5 |   0 | 4.451656e+04 | 1.637798e+05 | 267.91%| unknown
  7.0s|     1 |     0 |  1079 |     - |   262M |   0 |  23k|  22k|  23k| 386 |  8 |   5 |   0 | 4.451656e+04 | 1.637798e+05 | 267.91%| unknown
  8.0s|     1 |     0 |  1101 |     - |   265M |   0 |  23k|  22k|  23k| 402 |  9 |   5 |   0 | 4.451656e+04 | 1.637798e+05 | 267.91%| unknown
  9.0s|     1 |     0 |  1154 |     - |   267M |   0 |  23k|  22k|  23k| 432 | 10 |   5 |   0 | 4.452741e+04 | 1.637798e+05 | 267.82%| unknown
  9.0s|     1 |     0 |  1225 |     - |   271M |   0 |  23k|  22k|  23k| 462 | 11 |   5 |   0 | 4.454426e+04 | 1.637798e+05 | 267.68%| unknown
 10.0s|     1 |     0 |  1282 |     - |   274M |   0 |  23k|  22k|  23k| 488 | 12 |   5 |   0 | 4.455594e+04 | 1.637798e+05 | 267.58%| unknown
 10.0s|     1 |     0 |  1325 |     - |   278M |   0 |  23k|  22k|  23k| 509 | 13 |   5 |   0 | 4.456262e+04 | 1.637798e+05 | 267.53%| unknown
 time | node  | left  |LP iter|LP it/n|mem/heur|mdpt |vars |cons |rows |cuts |sepa|confs|strbr|  dualbound   | primalbound  |  gap   | compl. 
 11.0s|     1 |     0 |  1349 |     - |   280M |   0 |  23k|  22k|  23k| 523 | 14 |   5 |   0 | 4.457970e+04 | 1.637798e+05 | 267.39%| unknown
 11.0s|     1 |     0 |  1426 |     - |   282M |   0 |  23k|  22k|  23k| 570 | 15 |   5 |   0 | 4.470424e+04 | 1.637798e+05 | 266.36%| unknown
 12.0s|     1 |     0 |  1494 |     - |   286M |   0 |  23k|  22k|  23k| 611 | 16 |   5 |   0 | 4.478540e+04 | 1.637798e+05 | 265.70%| unknown
 13.0s|     1 |     0 |  1557 |     - |   288M |   0 |  23k|  22k|  23k| 641 | 17 |   5 |   0 | 4.495511e+04 | 1.637798e+05 | 264.32%| unknown
 13.0s|     1 |     0 |  1597 |     - |   292M |   0 |  23k|  22k|  23k| 659 | 18 |   5 |   0 | 4.504906e+04 | 1.637798e+05 | 263.56%| unknown
 14.0s|     1 |     0 |  1664 |     - |   298M |   0 |  23k|  22k|  23k| 689 | 19 |   5 |   0 | 4.529027e+04 | 1.637798e+05 | 261.62%| unknown
 15.0s|     1 |     0 |  1697 |     - |   302M |   0 |  23k|  22k|  23k| 708 | 20 |   5 |   0 | 4.530983e+04 | 1.637798e+05 | 261.47%| unknown
 16.0s|     1 |     0 |  1709 |     - |   302M |   0 |  23k|  22k|  23k| 715 | 21 |   5 |   0 | 4.534156e+04 | 1.637798e+05 | 261.21%| unknown
 16.0s|     1 |     0 |  1716 |     - |   302M |   0 |  23k|  22k|  23k| 721 | 22 |   5 |   0 | 4.534156e+04 | 1.637798e+05 | 261.21%| unknown
 16.0s|     1 |     0 |  1741 |     - |   302M |   0 |  23k|  22k|  23k| 737 | 23 |   5 |   0 | 4.537769e+04 | 1.637798e+05 | 260.93%| unknown
 17.0s|     1 |     0 |  1748 |     - |   302M |   0 |  23k|  22k|  23k| 747 | 24 |   5 |   0 | 4.537769e+04 | 1.637798e+05 | 260.93%| unknown
 17.0s|     1 |     0 |  1749 |     - |   302M |   0 |  23k|  22k|  23k| 748 | 25 |   5 |   0 | 4.537769e+04 | 1.637798e+05 | 260.93%| unknown
 18.0s|     1 |     0 |  1767 |     - |   303M |   0 |  23k|  22k|  23k| 761 | 26 |   5 |   0 | 4.538227e+04 | 1.637798e+05 | 260.89%| unknown
 18.0s|     1 |     0 |  1775 |     - |   303M |   0 |  23k|  22k|  23k| 770 | 27 |   5 |   0 | 4.538227e+04 | 1.637798e+05 | 260.89%| unknown
 18.0s|     1 |     0 |  1777 |     - |   303M |   0 |  23k|  22k|  23k| 772 | 29 |   5 |   0 | 4.538227e+04 | 1.637798e+05 | 260.89%| unknown
 time | node  | left  |LP iter|LP it/n|mem/heur|mdpt |vars |cons |rows |cuts |sepa|confs|strbr|  dualbound   | primalbound  |  gap   | compl. 
 45.0s|     1 |     2 |  6012 |     - |   308M |   0 |  23k|  22k|  23k| 772 | 31 |   8 |  25 | 4.547808e+04 | 1.637798e+05 | 260.13%| unknown
  444s|   100 |   101 | 61578 | 605.6 |   403M |  23 |  23k|  23k|  23k|1220 |  1 | 227 |1416 | 4.548183e+04 | 1.637798e+05 | 260.10%| unknown

SCIP Status        : solving was interrupted [time limit reached]
Solving Time (sec) : 600.00
Solving Nodes      : 163
Primal Bound       : +1.63779786102807e+05 (2 solutions)
Dual Bound         : +4.54822214755735e+04
Gap                : 260.10 %
Trying to solve problem with MTZ Solver Method...
Starting Solver, time limit setted to 10 minutes
Route:  [[0, 2], [1, 3], [2, 1], [3, 4], [4, 5], [5, 6], [6, 7], [7, 8], [8, 9], [9, 10], [10, 11], [11, 12], [12, 13], [13, 14], [14, 15], [15, 16], [16, 17], [17, 18], [18, 19], [19, 20], [20, 21], [21, 22], [22, 23], [23, 24], [24, 25], [25, 26], [26, 27], [27, 28], [28, 29], [29, 30], [30, 31], [31, 32], [32, 33], [33, 34], [34, 35], [35, 36], [36, 37], [37, 38], [38, 39], [39, 40], [40, 41], [41, 42], [42, 43], [43, 44], [44, 45], [45, 46], [46, 47], [47, 48], [48, 49], [49, 50], [50, 51], [51, 52], [52, 53], [53, 54], [54, 55], [55, 56], [56, 57], [57, 58], [58, 59], [59, 60], [60, 61], [61, 62], [62, 63], [63, 64], [64, 65], [65, 66], [66, 67], [67, 68], [68, 69], [69, 70], [70, 71], [71, 72], [72, 73], [73, 74], [74, 75], [75, 76], [76, 77], [77, 78], [78, 79], [79, 80], [80, 81], [81, 82], [82, 83], [83, 84], [84, 85], [85, 86], [86, 87], [87, 88], [88, 89], [89, 90], [90, 91], [91, 92], [92, 93], [93, 94], [94, 95], [95, 96], [96, 97], [97, 98], [98, 99], [99, 100], [100, 101], [101, 102], [102, 103], [103, 104], [104, 105], [105, 106], [106, 107], [107, 108], [108, 109], [109, 110], [110, 111], [111, 112], [112, 113], [113, 114], [114, 115], [115, 116], [116, 117], [117, 118], [118, 119], [119, 120], [120, 121], [121, 122], [122, 123], [123, 124], [124, 125], [125, 126], [126, 127], [127, 128], [128, 129], [129, 130], [130, 131], [131, 132], [132, 133], [133, 134], [134, 135], [135, 136], [136, 137], [137, 138], [138, 139], [139, 140], [140, 141], [141, 142], [142, 143], [143, 144], [144, 145], [145, 146], [146, 147], [147, 148], [148, 149], [149, 150], [150, 151], [151, 0]]
An Otimal Solution was found, yay!
Objective value: 163779.8
Problem solved in 73376 iterations
Problem solved in 163 nodes
Final Route Configuration succesfully created at:
data/routes/pr152.csv
